
  22   10
  10   10   10   10   10   10   10   10   10   10

   0   0   0   0   0   0   0   0   0   0   0   3 2 4 9 
   6  10  10  10  10  10  10  10  10  10  10   3 10 8 3 
   9  10  10  10  10  10  10  10  10  10  10   2 7 5 
   2  10  10  10  10  10  10  10  10  10  10   3 13 8 7 
   4  10  10  10  10  10  10  10  10  10  10   4 21 12 11 6 
   5  10  10  10  10  10  10  10  10  10  10   5 19 18 16 15 13 
   6  10  10  10  10  10  10  10  10  10  10   4 21 16 15 12 
   8  10  10  10  10  10  10  10  10  10  10   3 21 20 11 
   5  10  10  10  10  10  10  10  10  10  10   4 20 19 15 14 
  10  10  10  10  10  10  10  10  10  10  10   4 21 19 17 14 
   5  10  10  10  10  10  10  10  10  10  10   3 19 17 14 
   4  10  10  10  10  10  10  10  10  10  10   2 17 14 
   9  10  10  10  10  10  10  10  10  10  10   2 20 17 
   6  10  10  10  10  10  10  10  10  10  10   1 18 
   4  10  10  10  10  10  10  10  10  10  10   1 17 
   2  10  10  10  10  10  10  10  10  10  10   1 17 
   5  10  10  10  10  10  10  10  10  10  10   1 22
   7  10  10  10  10  10  10  10  10  10  10   1 22
   8  10  10  10  10  10  10  10  10  10  10   1 22
   2  10  10  10  10  10  10  10  10  10  10   1 22
   7  10  10  10  10  10  10  10  10  10  10   1 22
   0   0   0   0   0   0   0   0   0   0   0   0 
